
Gurobi 8.1.0 (win64, Python) logging started 05/05/19 20:15:40

Academic license - for non-commercial use only

Gurobi 8.1.0 (win64, Python) logging started 05/10/19 13:52:34

Academic license - for non-commercial use only
